c [ -1 -2 -3 -4 5 -6 -7 -8 9 10 ]
c r=8.000 p0=0.080
p cnf 10 80
2 10 1 0
-8 2 -1 0
4 7 9 0
-1 6 10 0
5 -4 10 0
7 1 -4 0
-5 -6 -1 0
8 -9 10 0
7 2 5 0
1 9 10 0
3 -10 -6 0
5 1 3 0
-1 10 2 0
-5 9 2 0
2 9 10 0
-3 -9 -8 0
5 8 2 0
-3 6 7 0
-5 -7 9 0
1 3 -6 0
-4 9 7 0
8 7 -3 0
3 5 -4 0
-8 10 5 0
7 -6 8 0
-8 7 9 0
9 7 6 0
-9 7 10 0
-8 4 7 0
-6 10 2 0
-10 -8 2 0
4 -2 7 0
-2 -6 1 0
-7 4 2 0
-10 -8 3 0
6 10 2 0
-2 -5 1 0
8 -2 -9 0
2 -3 8 0
-7 1 -5 0
7 -9 -6 0
4 5 -9 0
2 -4 -1 0
-6 -3 10 0
2 -5 10 0
-2 4 -10 0
-6 -3 5 0
-4 -9 -3 0
-6 7 3 0
7 3 5 0
8 9 3 0
-5 4 -6 0
7 3 -8 0
7 8 -3 0
-4 -9 -2 0
-5 -1 9 0
10 4 8 0
1 -4 7 0
2 -4 1 0
-5 -4 -8 0
10 7 6 0
-4 -3 2 0
10 -8 -5 0
-7 5 10 0
9 -7 -1 0
-5 -3 2 0
-7 1 5 0
-3 10 -6 0
-9 10 5 0
-3 6 7 0
-1 -6 10 0
1 5 -9 0
-2 10 1 0
-3 6 10 0
3 -1 4 0
5 6 -8 0
-8 7 -3 0
6 8 -3 0
9 7 1 0
1 -4 -10 0
